c uprop, v00.0, 
c reading from data/prog496.c.cnf
c done reading: 0
p cnf 108 435
-54 -70 0
-58 -70 0
54 58 70 0
54 58 -76 0
-54 -58 -76 0
-54 58 76 0
54 -58 76 0
-60 70 0
-60 -62 0
60 62 -70 0
62 -67 -70 0
-62 -67 70 0
62 67 70 0
-62 67 -70 0
60 -69 0
-69 -71 0
-60 69 71 0
-60 71 -73 0
60 -71 -73 0
60 71 73 0
-60 -71 73 0
69 -74 0
-74 -78 0
-69 74 78 0
-57 -69 78 0
-57 69 -78 0
57 69 78 0
57 -69 -78 0
-52 74 0
-52 -59 0
52 59 -74 0
-51 59 -74 0
-51 -59 74 0
51 59 74 0
51 -59 -74 0
-50 52 0
-50 -64 0
50 -52 64 0
-49 -52 64 0
-49 52 -64 0
49 52 64 0
49 -52 -64 0
-48 50 0
-48 -68 0
48 -50 68 0
-47 -50 68 0
-47 50 -68 0
47 50 68 0
47 -50 -68 0
-46 -54 0
-46 -58 0
46 54 58 0
-45 54 58 0
-45 -54 -58 0
45 -54 58 0
45 54 -58 0
-44 46 0
-44 -62 0
44 -46 62 0
-43 -46 62 0
-43 46 -62 0
43 46 62 0
43 -46 -62 0
-42 44 0
-42 -71 0
42 -44 71 0
-41 -44 71 0
-41 44 -71 0
41 44 71 0
41 -44 -71 0
-40 42 0
-40 -78 0
40 -42 78 0
-42 78 -79 0
42 -78 -79 0
42 78 79 0
-42 -78 79 0
40 -80 0
-59 -80 0
-40 59 80 0
-40 59 -81 0
40 -59 -81 0
40 59 81 0
-40 -59 81 0
80 -82 0
-64 -82 0
64 -80 82 0
64 -80 -83 0
-64 80 -83 0
64 80 83 0
-64 -80 83 0
82 -84 0
-68 -84 0
68 -82 84 0
-55 68 -82 0
-55 -68 82 0
55 68 82 0
55 -68 -82 0
-65 -85 0
65 85 0
-87 -89 0
87 89 0
-90 -91 0
90 91 0
-88 -93 0
88 93 0
-94 -95 0
94 95 0
-85 96 0
85 -96 0
-87 97 0
87 -97 0
87 -97 -98 0
-97 -98 0
-87 97 98 0
97 98 0
-85 -90 99 0
-90 -97 99 0
-85 -97 99 0
85 90 -99 0
90 97 -99 0
85 97 -99 0
90 -99 -100 0
85 -99 -100 0
97 -99 -100 0
-90 99 100 0
-85 99 100 0
-97 99 100 0
-85 -90 -97 100 0
85 90 97 -100 0
-87 -93 101 0
-93 -99 101 0
-87 -99 101 0
87 93 -101 0
93 99 -101 0
87 99 -101 0
93 -101 -102 0
87 -101 -102 0
99 -101 -102 0
-93 101 102 0
-87 101 102 0
-99 101 102 0
-87 -93 -99 102 0
87 93 99 -102 0
-90 -95 103 0
-95 -101 103 0
-90 -101 103 0
90 95 -103 0
95 101 -103 0
90 101 -103 0
95 -103 -104 0
90 -103 -104 0
101 -103 -104 0
-95 103 104 0
-90 103 104 0
-101 103 104 0
-90 -95 -101 104 0
90 95 101 -104 0
93 -105 0
103 -105 0
-93 -103 105 0
-93 -103 -106 0
93 103 -106 0
-93 103 106 0
93 -103 106 0
95 -107 0
105 -107 0
-95 -105 107 0
-95 -105 -108 0
95 105 -108 0
-95 105 108 0
95 -105 108 0
-39 96 0
39 -96 0
38 -98 0
-38 98 0
37 -100 0
-37 100 0
-36 -37 100 0
-36 -37 0
36 37 -100 0
36 37 0
35 -85 -102 0
35 -37 -102 0
35 -37 -85 0
-35 85 102 0
-35 37 102 0
-35 37 85 0
-34 -35 102 0
-34 -35 85 0
-34 -35 37 0
34 35 -102 0
34 35 -85 0
34 35 -37 0
34 -37 -85 -102 0
-34 37 85 102 0
33 -87 -104 0
33 -35 -104 0
33 -35 -87 0
-33 87 104 0
-33 35 104 0
-33 35 87 0
-32 -33 104 0
-32 -33 87 0
-32 -33 35 0
32 33 -104 0
32 33 -87 0
32 33 -35 0
32 -35 -87 -104 0
-32 35 87 104 0
31 -90 -106 0
31 -33 -106 0
31 -33 -90 0
-31 90 106 0
-31 33 106 0
-31 33 90 0
-30 -31 106 0
-30 -31 90 0
-30 -31 33 0
30 31 -106 0
30 31 -90 0
30 31 -33 0
30 -33 -90 -106 0
-30 33 90 106 0
29 -93 -108 0
29 -31 -108 0
29 -31 -93 0
-29 93 108 0
-29 31 108 0
-29 31 93 0
-28 -29 108 0
-28 -29 93 0
-28 -29 31 0
28 29 -108 0
28 29 -93 0
28 29 -31 0
28 -31 -93 -108 0
-28 31 93 108 0
27 -95 -107 0
27 -29 -107 0
27 -29 -95 0
-27 95 107 0
-27 29 107 0
-27 29 95 0
-26 -27 107 0
-26 -27 95 0
-26 -27 29 0
26 27 -107 0
26 27 -95 0
26 27 -29 0
26 -29 -95 -107 0
-26 29 95 107 0
-25 36 0
25 -36 0
24 -34 0
-24 34 0
23 -32 0
-23 32 0
-22 -23 32 0
-22 -23 0
22 23 -32 0
22 23 0
21 -30 -85 0
21 -23 -30 0
21 -23 -85 0
-21 30 85 0
-21 23 30 0
-21 23 85 0
-20 -21 30 0
-20 -21 85 0
-20 -21 23 0
20 21 -30 0
20 21 -85 0
20 21 -23 0
20 -23 -30 -85 0
-20 23 30 85 0
19 -28 -87 0
19 -21 -28 0
19 -21 -87 0
-19 28 87 0
-19 21 28 0
-19 21 87 0
-18 -19 28 0
-18 -19 87 0
-18 -19 21 0
18 19 -28 0
18 19 -87 0
18 19 -21 0
18 -21 -28 -87 0
-18 21 28 87 0
17 -26 -90 0
17 -19 -26 0
17 -19 -90 0
-17 26 90 0
-17 19 26 0
-17 19 90 0
-16 -17 26 0
-16 -17 90 0
-16 -17 19 0
16 17 -26 0
16 17 -90 0
16 17 -19 0
16 -19 -26 -90 0
-16 19 26 90 0
15 -27 -93 0
15 -17 -27 0
15 -17 -93 0
-15 27 93 0
-15 17 27 0
-15 17 93 0
-14 -15 27 0
-14 -15 93 0
-14 -15 17 0
14 15 -27 0
14 15 -93 0
14 15 -17 0
14 -17 -27 -93 0
-14 17 27 93 0
-13 95 0
-13 15 0
13 -15 -95 0
-12 -15 -95 0
-12 15 95 0
12 15 -95 0
12 -15 95 0
-39 -53 0
39 53 0
-38 -61 0
38 61 0
-25 -77 0
25 77 0
-24 -63 0
24 63 0
-11 -22 0
11 22 0
-10 -20 0
10 20 0
-18 -86 0
18 86 0
-16 -92 0
16 92 0
-9 -14 0
9 14 0
-8 -12 0
8 12 0
-7 -13 0
7 13 0
-6 54 0
-6 39 0
6 -39 -54 0
-39 -54 0
39 54 0
5 -38 -58 0
5 -6 -58 0
5 -6 -38 0
-5 38 58 0
-5 6 58 0
-5 6 38 0
-5 58 0
-5 38 0
-5 6 0
6 38 58 0
4 -25 -62 0
4 -5 -62 0
4 -5 -25 0
-4 25 62 0
-4 5 62 0
-4 5 25 0
4 -62 0
4 -25 0
4 -5 0
-5 -25 -62 0
3 -24 -71 0
3 -4 -71 0
3 -4 -24 0
-3 24 71 0
-3 4 71 0
-3 4 24 0
-3 71 0
-3 24 0
-3 4 0
4 24 71 0
2 -22 -78 0
2 -3 -78 0
2 -3 -22 0
-2 22 78 0
-2 3 78 0
-2 3 22 0
-2 78 0
-2 22 0
-2 3 0
3 22 78 0
1 -20 -59 0
1 -2 -59 0
1 -2 -20 0
-1 20 59 0
-1 2 59 0
-1 2 20 0
1 -59 0
1 -20 0
1 -2 0
-2 -20 -59 0
-18 -64 75 0
-1 -64 75 0
-1 -18 75 0
18 64 -75 0
1 64 -75 0
1 18 -75 0
-64 75 0
-18 75 0
-1 75 0
-1 -18 -64 0
-16 66 -68 0
66 -68 -75 0
-16 66 -75 0
16 -66 68 0
-66 68 75 0
16 -66 75 0
66 -68 0
-16 66 0
66 -75 0
-16 -68 -75 0
14 -72 0
66 -72 0
-14 -66 72 0
-14 66 0
14 -66 0
12 -56 0
-56 72 0
-12 56 -72 0
-12 72 0
12 -72 0
-13 -56 0
-13 56 0
13 -56 0
